50705
23,72,148,330,340,777,790,821,830,847,850,1014,1018,1050,1088,1110,1143,1173,1260,1316,1400,1457,1533,1548,1759,2426,2534,2651,2688,2720,2814,2874,2896,2919,2998,3032,3055,3154,3215,3216,3236,3364,3477,3562,3727,3938,3949,4060,4183,4202,4418,4487,4512,4567,4836,4838,4874,4942,4975,4985,5068,5079,5101,5119,5140,5223,5274,5340,5481,5510,5539,5583,5759,5801,5918,5937,6096,6215,6303,6337,6376,6467,6590,6613,6836,7068,7097,7117,7307,7309,7319,7342,7406,7460,7468,7490,7496,7508,7510,7520,7530,7652,7682,7717,7810,7931,7944,7950,7987,8085,8122,8161,8188,8307,8502,8522,8557,8714,8752,8800,8849,8912,8997,9042,9094,9143,9180,9194,9250,9303,9470,9633,9671,9720,9726,9899,9979
